0 0 0 0
0 1 2 0
0 2 0 0
0 3 0 0
0 4 0 4
0 5 0 7
0 6 1 10
0 7 1 16
0 8 0 9
0 9 0 9
0 10 2 16
0 11 0 12
0 12 2 3
0 13 1 12
0 14 1 21
0 15 1 13
0 16 2 13
0 17 1 13
0 18 0 10
0 19 1 12
0 20 2 28
0 21 1 22
0 22 1 23
0 23 1 19
0 24 1 21
0 25 0 25
0 26 1 28
0 27 0 28
0 28 2 25
0 29 0 31
0 30 0 32
0 31 0 34
